c SaDiCaL SAT Solver
c Copyright (C) 2018 by Armin Biere JKU
c
c Version 00n 481e664a7ffa9a307d3a0dad517daf5dde1989ef
c Compiler Apple clang version 15.0.0 (clang-1500.3.9.4)
c Options gcc -Wall -O3 -DNDEBUG -DNLOG
c proof path 'tests/full7.prf'
c
c all options have default values
c
c parsing 'tests/full7.cnf'
c found 'p cnf 7 128' header
c parsed DIMACS in 0.00 seconds
c 
c
c   time      reduced redundant irredundant
c       space  restarts  glue    variables
c           level conflicts  size remaining
c
c s 0.00 0.0 0.0 0 0 65 0 1.0 1.0 64 6 86%
c s 0.00 0.0 0.0 0 0 98 0 1.0 1.0 32 5 71%
c s 0.00 0.0 0.0 0 0 115 0 1.0 1.0 16 4 57%
c s 0.00 0.0 0.0 0 0 124 0 1.0 1.0 8 3 43%
c s 0.00 0.0 0.0 0 0 129 0 1.0 1.0 4 2 29%
c 0 0.00 0.0 0.0 0 0 131 0 1.0 1.0 4 0 0%
c
s UNSATISFIABLE
c
c simplifications:             5          26  conflicts/simplification  100%
c reductions:                  0           0  conflicts/reduction       100%
c restarts:                    0           0  conflicts/restart         100%
c conflicts:                 131       94585  conflicts/sec             100%
c decisions:                   6        4332  decisions/sec             100%
c propagations:              136         0.1  millions/sec               96%
c
c pure:                        0           0% of look-aheads
c look-ahead:                  6         100% of outer decisions        100%
c pruned:                      5           4% of outer conflicts          4%
c generated reducts:           5         100% satisfiable
c average size:                0           0% of all clauses
c pruning failed:              0           0% per reduct
c filter checks:             124         100% of outer satisfied clauses
c average filtered:         24.8         100% per reduct
c assumed literals:          640         5.2  per filter check
c
c collected clauses:        0.01 MB       98% of allocated clauses      100%
c allocated clauses:        0.01 MB       24% of allocated memory       100%
c maximum heap:             0.02 MB        0% of resident set size       93%
c
c looking:                  0.00 sec       0% of process time
c filtering:                0.00 sec       3% of process time
c pruning:                  0.00 sec       6% of process time
c simplifying:              0.00 sec       4% of process time
c
c resident set size:     1040.00 MB
c total process time:       0.00 sec
